NAME: generated_5_sym_1_60_UniformDistrib_noSparse.tsp
TYPE: TSP
COMMENT: Test case generated with custom generator!
DIMENSION: 5
EDGE_WEIGHT_TYPE: EXPLICIT
EDGE_WEIGHT_FORMAT: FULL_MATRIX
DISPLAY_DATA_TYPE: TWOD_DISPLAY
EDGE_WEIGHT_SECTION
0 15 41 33 39 
15 0 7 30 19 
41 7 0 41 15 
33 30 41 0 7 
39 19 15 7 0 
